\ SCIP STATISTICS
\   Problem name     : CapacitatedFacilityLocation-20-10
\   Variables        : 210 (210 binary, 0 integer, 0 implicit integer, 0 continuous)
\   Constraints      : 231
Minimize
 Obj: +551.286810327719 x0 +1265.62568389442 x1 +904.834851971305 x2 +1116.68863569284 x3 +1358.93957566046 x4
      +712.416168003106 x5 +1247.51676022445 x6 +1022.87082464257 x7 +420.649053450942 x8 +982.593898951879 x9
      +97.1309873690651 x10 +93.1881697596504 x11 +98.6486362012003 x12 +22.7976644742983 x13 +94.2586255951046 x14
      +129.729876746399 x15 +97.1328237997764 x16 +33.7026304634841 x17 +71.0340330124491 x18 +72.3130088037605 x19
      +98.8542722123379 x20 +143.157640811026 x21 +196.543973492392 x22 +153.379994101706 x23 +14.8485963019303 x24
      +73.6975842629454 x25 +65.1480467219023 x26 +94.4904785782062 x27 +32.0687981395709 x28 +46.0345905217726 x29
      +23.8581432953268 x30 +14.4928400768066 x31 +8.61738829736464 x32 +23.3761242676661 x33 +35.519140440104 x34
      +39.8545701034889 x35 +29.2922317118731 x36 +17.9728321083221 x37 +30.1858482831969 x38 +27.198745820548 x39
      +52.2795599182973 x40 +81.1524522021248 x41 +124.794199153208 x42 +105.727658871011 x43 +40.2118677751381 x44
      +73.5953107060514 x45 +37.3776796788502 x46 +42.787943250686 x47 +21.8097207963238 x48 +7.11449089338532 x49
      +44.4073784099422 x50 +78.9011900475518 x51 +147.527490498069 x52 +161.258942521128 x53 +89.6520917349398 x54
      +112.716002221324 x55 +50.7203153420401 x56 +65.5446136969506 x57 +70.6390107339866 x58 +45.2583971709549 x59
      +46.050403500409 x60 +17.5701838706081 x61 +44.8182841953375 x62 +94.0051544349142 x63 +94.2825676352653 x64
      +101.980498286981 x65 +67.1638679194563 x66 +51.9084975658319 x67 +80.5560847124199 x68 +67.2402586437743 x69
      +57.7859827580468 x70 +37.2092690273528 x71 +11.4215206168997 x72 +58.8892303948716 x73 +83.1937127204118 x74
      +87.9155174098959 x75 +69.7329186623454 x76 +52.9733550687421 x77 +74.3365623759681 x78 +68.36389350314 x79
      +124.087620880725 x80 +132.188574436202 x81 +150.218450756008 x82 +50.3497458337916 x83 +98.3381501013807 x84
      +148.977355216554 x85 +114.753179164433 x86 +50.2495644038236 x87 +71.0849126157602 x88 +79.770589110118 x89
      +29.3643177889701 x90 +55.0068978909323 x91 +92.1445113213628 x92 +118.809849258095 x93 +54.9117157634539 x94
      +29.8455215178883 x95 +30.3937539515281 x96 +75.8207309658791 x97 +62.0678536297074 x98 +52.4685916820738 x99
      +87.2491492705701 x100 +77.5154315433825 x101 +73.5571230360925 x102 +15.7847965057768 x103 +92.2934582903111 x104
      +119.136773316388 x105 +90.8819697435315 x106 +38.2709381752954 x107 +73.2726436609619 x108 +72.5572487254133 x109
      +112.843737234959 x110 +99.3283957185254 x111 +104.454918813558 x112 +51.4935551237081 x113 +127.906779558653 x114
      +167.647852728016 x115 +120.227328517964 x116 +35.9066327254536 x117 +97.5894920735927 x118 +92.9002449646136 x119
      +124.714612558043 x120 +113.50540790517 x121 +105.635898837721 x122 +11.1639325074911 x123 +125.436570265576 x124
      +160.785861460426 x125 +127.475744577541 x126 +63.3434558859779 x127 +102.221430869437 x128 +103.496007486312 x129
      +144.556973770388 x130 +100.218333883444 x131 +84.7742581780653 x132 +115.338139655862 x133 +200.924657002304 x134
      +237.140736441773 x135 +170.83084626099 x136 +84.4911950498993 x137 +164.853982810855 x138 +149.588926067652 x139
      +134.430595990758 x140 +163.299737749186 x141 +215.286351060583 x142 +128.679993052481 x143 +96.192405715439 x144
      +170.050639971706 x145 +115.045760236846 x146 +48.8935151252777 x147 +51.1363931786155 x148 +59.991311421322 x149
      +69.276878745854 x150 +47.4000475450508 x151 +20.0784158575211 x152 +60.467020734357 x153 +94.7437171279565 x154
      +102.277535497473 x155 +81.5117077352082 x156 +58.7031630491016 x157 +83.9782698409108 x158 +78.1055676746099 x159
      +55.5735684619259 x160 +49.7390786717648 x161 +49.8884423185238 x162 +15.7947394100696 x163 +59.6180671152234 x164
      +78.2911541511829 x165 +58.0369895299429 x166 +20.5312251915871 x167 +46.1242216822209 x168 +45.1665925153613 x169
      +34.4368271358791 x170 +45.5229724207775 x171 +58.5783501268012 x172 +41.9615852586713 x173 +12.4564012758525 x174
      +26.2088499050128 x175 +25.6857863134102 x176 +29.9676274272588 x177 +14.9768095616772 x178 +19.8498601035715 x179
      +28.1770791898997 x180 +28.7766555716981 x181 +36.183598831992 x182 +21.2344875909881 x183 +29.3693235061292 x184
      +42.1965624224067 x185 +28.2884468861213 x186 +1.94818095600208 x187 +20.1373090902749 x188 +18.9502120588849 x189
      +96.9465956318703 x190 +36.0447921125245 x191 +44.6327752571359 x192 +179.376576478303 x193 +184.257040826658 x194
      +183.975532826899 x195 +135.986477308996 x196 +124.110731837846 x197 +166.660927335056 x198 +145.014836196105 x199
      +67.4343875326339 x200 +103.276669843092 x201 +146.578787092694 x202 +120.870116815612 x203 +1.91788920643407 x204
      +49.4779551694183 x205 +40.6645693194265 x206 +70.8918329613147 x207 +22.9912830227023 x208 +29.2316294940796 x209
Subject to
 c0: +1 x10 +1 x11 +1 x12 +1 x13 +1 x14 +1 x15 +1 x16 +1 x17 +1 x18 +1 x19 >= +1
 c1: +1 x20 +1 x21 +1 x22 +1 x23 +1 x24 +1 x25 +1 x26 +1 x27 +1 x28 +1 x29 >= +1
 c2: +1 x30 +1 x31 +1 x32 +1 x33 +1 x34 +1 x35 +1 x36 +1 x37 +1 x38 +1 x39 >= +1
 c3: +1 x40 +1 x41 +1 x42 +1 x43 +1 x44 +1 x45 +1 x46 +1 x47 +1 x48 +1 x49 >= +1
 c4: +1 x50 +1 x51 +1 x52 +1 x53 +1 x54 +1 x55 +1 x56 +1 x57 +1 x58 +1 x59 >= +1
 c5: +1 x60 +1 x61 +1 x62 +1 x63 +1 x64 +1 x65 +1 x66 +1 x67 +1 x68 +1 x69 >= +1
 c6: +1 x70 +1 x71 +1 x72 +1 x73 +1 x74 +1 x75 +1 x76 +1 x77 +1 x78 +1 x79 >= +1
 c7: +1 x80 +1 x81 +1 x82 +1 x83 +1 x84 +1 x85 +1 x86 +1 x87 +1 x88 +1 x89 >= +1
 c8: +1 x90 +1 x91 +1 x92 +1 x93 +1 x94 +1 x95 +1 x96 +1 x97 +1 x98 +1 x99 >= +1
 c9: +1 x100 +1 x101 +1 x102 +1 x103 +1 x104 +1 x105 +1 x106 +1 x107 +1 x108 +1 x109 >= +1
 c10: +1 x110 +1 x111 +1 x112 +1 x113 +1 x114 +1 x115 +1 x116 +1 x117 +1 x118 +1 x119 >= +1
 c11: +1 x120 +1 x121 +1 x122 +1 x123 +1 x124 +1 x125 +1 x126 +1 x127 +1 x128 +1 x129 >= +1
 c12: +1 x130 +1 x131 +1 x132 +1 x133 +1 x134 +1 x135 +1 x136 +1 x137 +1 x138 +1 x139 >= +1
 c13: +1 x140 +1 x141 +1 x142 +1 x143 +1 x144 +1 x145 +1 x146 +1 x147 +1 x148 +1 x149 >= +1
 c14: +1 x150 +1 x151 +1 x152 +1 x153 +1 x154 +1 x155 +1 x156 +1 x157 +1 x158 +1 x159 >= +1
 c15: +1 x160 +1 x161 +1 x162 +1 x163 +1 x164 +1 x165 +1 x166 +1 x167 +1 x168 +1 x169 >= +1
 c16: +1 x170 +1 x171 +1 x172 +1 x173 +1 x174 +1 x175 +1 x176 +1 x177 +1 x178 +1 x179 >= +1
 c17: +1 x180 +1 x181 +1 x182 +1 x183 +1 x184 +1 x185 +1 x186 +1 x187 +1 x188 +1 x189 >= +1
 c18: +1 x190 +1 x191 +1 x192 +1 x193 +1 x194 +1 x195 +1 x196 +1 x197 +1 x198 +1 x199 >= +1
 c19: +1 x200 +1 x201 +1 x202 +1 x203 +1 x204 +1 x205 +1 x206 +1 x207 +1 x208 +1 x209 >= +1
 c20: +17 x10 +23 x20 +5 x30 +20 x40 +29 x50 +17 x60 +9 x70 +21 x80 +13 x90 +14 x100 +23 x110 +17 x120
  +31 x130 +33 x140 +10 x150 +10 x160 +6 x170 +7 x180 +26 x190 +18 x200 -59 x0 <= +0
 c21: +17 x11 +23 x21 +5 x31 +20 x41 +29 x51 +17 x61 +9 x71 +21 x81 +13 x91 +14 x101 +23 x111 +17 x121
  +31 x131 +33 x141 +10 x151 +10 x161 +6 x171 +7 x181 +26 x191 +18 x201 -260 x1 <= +0
 c22: +17 x12 +23 x22 +5 x32 +20 x42 +29 x52 +17 x62 +9 x72 +21 x82 +13 x92 +14 x102 +23 x112 +17 x122
  +31 x132 +33 x142 +10 x152 +10 x162 +6 x172 +7 x182 +26 x192 +18 x202 -150 x2 <= +0
 c23: +17 x13 +23 x23 +5 x33 +20 x43 +29 x53 +17 x63 +9 x73 +21 x83 +13 x93 +14 x103 +23 x113 +17 x123
  +31 x133 +33 x143 +10 x153 +10 x163 +6 x173 +7 x183 +26 x193 +18 x203 -241 x3 <= +0
 c24: +17 x14 +23 x24 +5 x34 +20 x44 +29 x54 +17 x64 +9 x74 +21 x84 +13 x94 +14 x104 +23 x114 +17 x124
  +31 x134 +33 x144 +10 x154 +10 x164 +6 x174 +7 x184 +26 x194 +18 x204 -317 x4 <= +0
 c25: +17 x15 +23 x25 +5 x35 +20 x45 +29 x55 +17 x65 +9 x75 +21 x85 +13 x95 +14 x105 +23 x115 +17 x125
  +31 x135 +33 x145 +10 x155 +10 x165 +6 x175 +7 x185 +26 x195 +18 x205 -87 x5 <= +0
 c26: +17 x16 +23 x26 +5 x36 +20 x46 +29 x56 +17 x66 +9 x76 +21 x86 +13 x96 +14 x106 +23 x116 +17 x126
  +31 x136 +33 x146 +10 x156 +10 x166 +6 x176 +7 x186 +26 x196 +18 x206 -270 x6 <= +0
 c27: +17 x17 +23 x27 +5 x37 +20 x47 +29 x57 +17 x67 +9 x77 +21 x87 +13 x97 +14 x107 +23 x117 +17 x127
  +31 x137 +33 x147 +10 x157 +10 x167 +6 x177 +7 x187 +26 x197 +18 x207 -166 x7 <= +0
 c28: +17 x18 +23 x28 +5 x38 +20 x48 +29 x58 +17 x68 +9 x78 +21 x88 +13 x98 +14 x108 +23 x118 +17 x128
  +31 x138 +33 x148 +10 x158 +10 x168 +6 x178 +7 x188 +26 x198 +18 x208 -28 x8 <= +0
 c29: +17 x19 +23 x29 +5 x39 +20 x49 +29 x59 +17 x69 +9 x79 +21 x89 +13 x99 +14 x109 +23 x119 +17 x129
  +31 x139 +33 x149 +10 x159 +10 x169 +6 x179 +7 x189 +26 x199 +18 x209 -166 x9 <= +0
 c30: +59 x0 +260 x1 +150 x2 +241 x3 +317 x4 +87 x5 +270 x6 +166 x7 +28 x8 +166 x9 >= +349
 c31: +1 x10 -1 x0 <= +0
 c32: +1 x11 -1 x1 <= +0
 c33: +1 x12 -1 x2 <= +0
 c34: +1 x13 -1 x3 <= +0
 c35: +1 x14 -1 x4 <= +0
 c36: +1 x15 -1 x5 <= +0
 c37: +1 x16 -1 x6 <= +0
 c38: +1 x17 -1 x7 <= +0
 c39: +1 x18 -1 x8 <= +0
 c40: +1 x19 -1 x9 <= +0
 c41: +1 x20 -1 x0 <= +0
 c42: +1 x21 -1 x1 <= +0
 c43: +1 x22 -1 x2 <= +0
 c44: +1 x23 -1 x3 <= +0
 c45: +1 x24 -1 x4 <= +0
 c46: +1 x25 -1 x5 <= +0
 c47: +1 x26 -1 x6 <= +0
 c48: +1 x27 -1 x7 <= +0
 c49: +1 x28 -1 x8 <= +0
 c50: +1 x29 -1 x9 <= +0
 c51: +1 x30 -1 x0 <= +0
 c52: +1 x31 -1 x1 <= +0
 c53: +1 x32 -1 x2 <= +0
 c54: +1 x33 -1 x3 <= +0
 c55: +1 x34 -1 x4 <= +0
 c56: +1 x35 -1 x5 <= +0
 c57: +1 x36 -1 x6 <= +0
 c58: +1 x37 -1 x7 <= +0
 c59: +1 x38 -1 x8 <= +0
 c60: +1 x39 -1 x9 <= +0
 c61: +1 x40 -1 x0 <= +0
 c62: +1 x41 -1 x1 <= +0
 c63: +1 x42 -1 x2 <= +0
 c64: +1 x43 -1 x3 <= +0
 c65: +1 x44 -1 x4 <= +0
 c66: +1 x45 -1 x5 <= +0
 c67: +1 x46 -1 x6 <= +0
 c68: +1 x47 -1 x7 <= +0
 c69: +1 x48 -1 x8 <= +0
 c70: +1 x49 -1 x9 <= +0
 c71: +1 x50 -1 x0 <= +0
 c72: +1 x51 -1 x1 <= +0
 c73: +1 x52 -1 x2 <= +0
 c74: +1 x53 -1 x3 <= +0
 c75: +1 x54 -1 x4 <= +0
 c76: +1 x55 -1 x5 <= +0
 c77: +1 x56 -1 x6 <= +0
 c78: +1 x57 -1 x7 <= +0
 c79: +1 x58 -1 x8 <= +0
 c80: +1 x59 -1 x9 <= +0
 c81: +1 x60 -1 x0 <= +0
 c82: +1 x61 -1 x1 <= +0
 c83: +1 x62 -1 x2 <= +0
 c84: +1 x63 -1 x3 <= +0
 c85: +1 x64 -1 x4 <= +0
 c86: +1 x65 -1 x5 <= +0
 c87: +1 x66 -1 x6 <= +0
 c88: +1 x67 -1 x7 <= +0
 c89: +1 x68 -1 x8 <= +0
 c90: +1 x69 -1 x9 <= +0
 c91: +1 x70 -1 x0 <= +0
 c92: +1 x71 -1 x1 <= +0
 c93: +1 x72 -1 x2 <= +0
 c94: +1 x73 -1 x3 <= +0
 c95: +1 x74 -1 x4 <= +0
 c96: +1 x75 -1 x5 <= +0
 c97: +1 x76 -1 x6 <= +0
 c98: +1 x77 -1 x7 <= +0
 c99: +1 x78 -1 x8 <= +0
 c100: +1 x79 -1 x9 <= +0
 c101: +1 x80 -1 x0 <= +0
 c102: +1 x81 -1 x1 <= +0
 c103: +1 x82 -1 x2 <= +0
 c104: +1 x83 -1 x3 <= +0
 c105: +1 x84 -1 x4 <= +0
 c106: +1 x85 -1 x5 <= +0
 c107: +1 x86 -1 x6 <= +0
 c108: +1 x87 -1 x7 <= +0
 c109: +1 x88 -1 x8 <= +0
 c110: +1 x89 -1 x9 <= +0
 c111: +1 x90 -1 x0 <= +0
 c112: +1 x91 -1 x1 <= +0
 c113: +1 x92 -1 x2 <= +0
 c114: +1 x93 -1 x3 <= +0
 c115: +1 x94 -1 x4 <= +0
 c116: +1 x95 -1 x5 <= +0
 c117: +1 x96 -1 x6 <= +0
 c118: +1 x97 -1 x7 <= +0
 c119: +1 x98 -1 x8 <= +0
 c120: +1 x99 -1 x9 <= +0
 c121: +1 x100 -1 x0 <= +0
 c122: +1 x101 -1 x1 <= +0
 c123: +1 x102 -1 x2 <= +0
 c124: +1 x103 -1 x3 <= +0
 c125: +1 x104 -1 x4 <= +0
 c126: +1 x105 -1 x5 <= +0
 c127: +1 x106 -1 x6 <= +0
 c128: +1 x107 -1 x7 <= +0
 c129: +1 x108 -1 x8 <= +0
 c130: +1 x109 -1 x9 <= +0
 c131: +1 x110 -1 x0 <= +0
 c132: +1 x111 -1 x1 <= +0
 c133: +1 x112 -1 x2 <= +0
 c134: +1 x113 -1 x3 <= +0
 c135: +1 x114 -1 x4 <= +0
 c136: +1 x115 -1 x5 <= +0
 c137: +1 x116 -1 x6 <= +0
 c138: +1 x117 -1 x7 <= +0
 c139: +1 x118 -1 x8 <= +0
 c140: +1 x119 -1 x9 <= +0
 c141: +1 x120 -1 x0 <= +0
 c142: +1 x121 -1 x1 <= +0
 c143: +1 x122 -1 x2 <= +0
 c144: +1 x123 -1 x3 <= +0
 c145: +1 x124 -1 x4 <= +0
 c146: +1 x125 -1 x5 <= +0
 c147: +1 x126 -1 x6 <= +0
 c148: +1 x127 -1 x7 <= +0
 c149: +1 x128 -1 x8 <= +0
 c150: +1 x129 -1 x9 <= +0
 c151: +1 x130 -1 x0 <= +0
 c152: +1 x131 -1 x1 <= +0
 c153: +1 x132 -1 x2 <= +0
 c154: +1 x133 -1 x3 <= +0
 c155: +1 x134 -1 x4 <= +0
 c156: +1 x135 -1 x5 <= +0
 c157: +1 x136 -1 x6 <= +0
 c158: +1 x137 -1 x7 <= +0
 c159: +1 x138 -1 x8 <= +0
 c160: +1 x139 -1 x9 <= +0
 c161: +1 x140 -1 x0 <= +0
 c162: +1 x141 -1 x1 <= +0
 c163: +1 x142 -1 x2 <= +0
 c164: +1 x143 -1 x3 <= +0
 c165: +1 x144 -1 x4 <= +0
 c166: +1 x145 -1 x5 <= +0
 c167: +1 x146 -1 x6 <= +0
 c168: +1 x147 -1 x7 <= +0
 c169: +1 x148 -1 x8 <= +0
 c170: +1 x149 -1 x9 <= +0
 c171: +1 x150 -1 x0 <= +0
 c172: +1 x151 -1 x1 <= +0
 c173: +1 x152 -1 x2 <= +0
 c174: +1 x153 -1 x3 <= +0
 c175: +1 x154 -1 x4 <= +0
 c176: +1 x155 -1 x5 <= +0
 c177: +1 x156 -1 x6 <= +0
 c178: +1 x157 -1 x7 <= +0
 c179: +1 x158 -1 x8 <= +0
 c180: +1 x159 -1 x9 <= +0
 c181: +1 x160 -1 x0 <= +0
 c182: +1 x161 -1 x1 <= +0
 c183: +1 x162 -1 x2 <= +0
 c184: +1 x163 -1 x3 <= +0
 c185: +1 x164 -1 x4 <= +0
 c186: +1 x165 -1 x5 <= +0
 c187: +1 x166 -1 x6 <= +0
 c188: +1 x167 -1 x7 <= +0
 c189: +1 x168 -1 x8 <= +0
 c190: +1 x169 -1 x9 <= +0
 c191: +1 x170 -1 x0 <= +0
 c192: +1 x171 -1 x1 <= +0
 c193: +1 x172 -1 x2 <= +0
 c194: +1 x173 -1 x3 <= +0
 c195: +1 x174 -1 x4 <= +0
 c196: +1 x175 -1 x5 <= +0
 c197: +1 x176 -1 x6 <= +0
 c198: +1 x177 -1 x7 <= +0
 c199: +1 x178 -1 x8 <= +0
 c200: +1 x179 -1 x9 <= +0
 c201: +1 x180 -1 x0 <= +0
 c202: +1 x181 -1 x1 <= +0
 c203: +1 x182 -1 x2 <= +0
 c204: +1 x183 -1 x3 <= +0
 c205: +1 x184 -1 x4 <= +0
 c206: +1 x185 -1 x5 <= +0
 c207: +1 x186 -1 x6 <= +0
 c208: +1 x187 -1 x7 <= +0
 c209: +1 x188 -1 x8 <= +0
 c210: +1 x189 -1 x9 <= +0
 c211: +1 x190 -1 x0 <= +0
 c212: +1 x191 -1 x1 <= +0
 c213: +1 x192 -1 x2 <= +0
 c214: +1 x193 -1 x3 <= +0
 c215: +1 x194 -1 x4 <= +0
 c216: +1 x195 -1 x5 <= +0
 c217: +1 x196 -1 x6 <= +0
 c218: +1 x197 -1 x7 <= +0
 c219: +1 x198 -1 x8 <= +0
 c220: +1 x199 -1 x9 <= +0
 c221: +1 x200 -1 x0 <= +0
 c222: +1 x201 -1 x1 <= +0
 c223: +1 x202 -1 x2 <= +0
 c224: +1 x203 -1 x3 <= +0
 c225: +1 x204 -1 x4 <= +0
 c226: +1 x205 -1 x5 <= +0
 c227: +1 x206 -1 x6 <= +0
 c228: +1 x207 -1 x7 <= +0
 c229: +1 x208 -1 x8 <= +0
 c230: +1 x209 -1 x9 <= +0
Bounds
 0 <= x0 <= 1
 0 <= x1 <= 1
 0 <= x2 <= 1
 0 <= x3 <= 1
 0 <= x4 <= 1
 0 <= x5 <= 1
 0 <= x6 <= 1
 0 <= x7 <= 1
 0 <= x8 <= 1
 0 <= x9 <= 1
 0 <= x10 <= 1
 0 <= x11 <= 1
 0 <= x12 <= 1
 0 <= x13 <= 1
 0 <= x14 <= 1
 0 <= x15 <= 1
 0 <= x16 <= 1
 0 <= x17 <= 1
 0 <= x18 <= 1
 0 <= x19 <= 1
 0 <= x20 <= 1
 0 <= x21 <= 1
 0 <= x22 <= 1
 0 <= x23 <= 1
 0 <= x24 <= 1
 0 <= x25 <= 1
 0 <= x26 <= 1
 0 <= x27 <= 1
 0 <= x28 <= 1
 0 <= x29 <= 1
 0 <= x30 <= 1
 0 <= x31 <= 1
 0 <= x32 <= 1
 0 <= x33 <= 1
 0 <= x34 <= 1
 0 <= x35 <= 1
 0 <= x36 <= 1
 0 <= x37 <= 1
 0 <= x38 <= 1
 0 <= x39 <= 1
 0 <= x40 <= 1
 0 <= x41 <= 1
 0 <= x42 <= 1
 0 <= x43 <= 1
 0 <= x44 <= 1
 0 <= x45 <= 1
 0 <= x46 <= 1
 0 <= x47 <= 1
 0 <= x48 <= 1
 0 <= x49 <= 1
 0 <= x50 <= 1
 0 <= x51 <= 1
 0 <= x52 <= 1
 0 <= x53 <= 1
 0 <= x54 <= 1
 0 <= x55 <= 1
 0 <= x56 <= 1
 0 <= x57 <= 1
 0 <= x58 <= 1
 0 <= x59 <= 1
 0 <= x60 <= 1
 0 <= x61 <= 1
 0 <= x62 <= 1
 0 <= x63 <= 1
 0 <= x64 <= 1
 0 <= x65 <= 1
 0 <= x66 <= 1
 0 <= x67 <= 1
 0 <= x68 <= 1
 0 <= x69 <= 1
 0 <= x70 <= 1
 0 <= x71 <= 1
 0 <= x72 <= 1
 0 <= x73 <= 1
 0 <= x74 <= 1
 0 <= x75 <= 1
 0 <= x76 <= 1
 0 <= x77 <= 1
 0 <= x78 <= 1
 0 <= x79 <= 1
 0 <= x80 <= 1
 0 <= x81 <= 1
 0 <= x82 <= 1
 0 <= x83 <= 1
 0 <= x84 <= 1
 0 <= x85 <= 1
 0 <= x86 <= 1
 0 <= x87 <= 1
 0 <= x88 <= 1
 0 <= x89 <= 1
 0 <= x90 <= 1
 0 <= x91 <= 1
 0 <= x92 <= 1
 0 <= x93 <= 1
 0 <= x94 <= 1
 0 <= x95 <= 1
 0 <= x96 <= 1
 0 <= x97 <= 1
 0 <= x98 <= 1
 0 <= x99 <= 1
 0 <= x100 <= 1
 0 <= x101 <= 1
 0 <= x102 <= 1
 0 <= x103 <= 1
 0 <= x104 <= 1
 0 <= x105 <= 1
 0 <= x106 <= 1
 0 <= x107 <= 1
 0 <= x108 <= 1
 0 <= x109 <= 1
 0 <= x110 <= 1
 0 <= x111 <= 1
 0 <= x112 <= 1
 0 <= x113 <= 1
 0 <= x114 <= 1
 0 <= x115 <= 1
 0 <= x116 <= 1
 0 <= x117 <= 1
 0 <= x118 <= 1
 0 <= x119 <= 1
 0 <= x120 <= 1
 0 <= x121 <= 1
 0 <= x122 <= 1
 0 <= x123 <= 1
 0 <= x124 <= 1
 0 <= x125 <= 1
 0 <= x126 <= 1
 0 <= x127 <= 1
 0 <= x128 <= 1
 0 <= x129 <= 1
 0 <= x130 <= 1
 0 <= x131 <= 1
 0 <= x132 <= 1
 0 <= x133 <= 1
 0 <= x134 <= 1
 0 <= x135 <= 1
 0 <= x136 <= 1
 0 <= x137 <= 1
 0 <= x138 <= 1
 0 <= x139 <= 1
 0 <= x140 <= 1
 0 <= x141 <= 1
 0 <= x142 <= 1
 0 <= x143 <= 1
 0 <= x144 <= 1
 0 <= x145 <= 1
 0 <= x146 <= 1
 0 <= x147 <= 1
 0 <= x148 <= 1
 0 <= x149 <= 1
 0 <= x150 <= 1
 0 <= x151 <= 1
 0 <= x152 <= 1
 0 <= x153 <= 1
 0 <= x154 <= 1
 0 <= x155 <= 1
 0 <= x156 <= 1
 0 <= x157 <= 1
 0 <= x158 <= 1
 0 <= x159 <= 1
 0 <= x160 <= 1
 0 <= x161 <= 1
 0 <= x162 <= 1
 0 <= x163 <= 1
 0 <= x164 <= 1
 0 <= x165 <= 1
 0 <= x166 <= 1
 0 <= x167 <= 1
 0 <= x168 <= 1
 0 <= x169 <= 1
 0 <= x170 <= 1
 0 <= x171 <= 1
 0 <= x172 <= 1
 0 <= x173 <= 1
 0 <= x174 <= 1
 0 <= x175 <= 1
 0 <= x176 <= 1
 0 <= x177 <= 1
 0 <= x178 <= 1
 0 <= x179 <= 1
 0 <= x180 <= 1
 0 <= x181 <= 1
 0 <= x182 <= 1
 0 <= x183 <= 1
 0 <= x184 <= 1
 0 <= x185 <= 1
 0 <= x186 <= 1
 0 <= x187 <= 1
 0 <= x188 <= 1
 0 <= x189 <= 1
 0 <= x190 <= 1
 0 <= x191 <= 1
 0 <= x192 <= 1
 0 <= x193 <= 1
 0 <= x194 <= 1
 0 <= x195 <= 1
 0 <= x196 <= 1
 0 <= x197 <= 1
 0 <= x198 <= 1
 0 <= x199 <= 1
 0 <= x200 <= 1
 0 <= x201 <= 1
 0 <= x202 <= 1
 0 <= x203 <= 1
 0 <= x204 <= 1
 0 <= x205 <= 1
 0 <= x206 <= 1
 0 <= x207 <= 1
 0 <= x208 <= 1
 0 <= x209 <= 1
Binaries
 x0 x1 x2 x3 x4 x5 x6 x7 x8 x9 x10 x11 x12 x13 x14 x15 x16 x17 x18 x19 x20 x21 x22 x23 x24 x25 x26 x27
 x28 x29 x30 x31 x32 x33 x34 x35 x36 x37 x38 x39 x40 x41 x42 x43 x44 x45 x46 x47 x48 x49 x50 x51 x52 x53
 x54 x55 x56 x57 x58 x59 x60 x61 x62 x63 x64 x65 x66 x67 x68 x69 x70 x71 x72 x73 x74 x75 x76 x77 x78 x79
 x80 x81 x82 x83 x84 x85 x86 x87 x88 x89 x90 x91 x92 x93 x94 x95 x96 x97 x98 x99 x100 x101 x102 x103 x104
 x105 x106 x107 x108 x109 x110 x111 x112 x113 x114 x115 x116 x117 x118 x119 x120 x121 x122 x123 x124 x125
 x126 x127 x128 x129 x130 x131 x132 x133 x134 x135 x136 x137 x138 x139 x140 x141 x142 x143 x144 x145 x146
 x147 x148 x149 x150 x151 x152 x153 x154 x155 x156 x157 x158 x159 x160 x161 x162 x163 x164 x165 x166 x167
 x168 x169 x170 x171 x172 x173 x174 x175 x176 x177 x178 x179 x180 x181 x182 x183 x184 x185 x186 x187 x188
 x189 x190 x191 x192 x193 x194 x195 x196 x197 x198 x199 x200 x201 x202 x203 x204 x205 x206 x207 x208 x209
End
